<?xml version="1.0" encoding="UTF-8"?><osil xmlns="os.optimizationservices.org" xmlns:xsi="http://www.w3.org/2001/XMLSchema-instance" xsi:schemaLocation="os.optimizationservices.org http://www.optimizationservices.org/schemas/2.0/OSiL.xsd"><instanceHeader><name>st_e14</name></instanceHeader><instanceData><variables numberOfVariables="11"><var name="x1" ub="10"/><var name="x2" ub="10"/><var name="x3" ub="10"/><var name="x4" ub="1"/><var name="x5" ub="1"/><var name="x6" ub="1"/><var name="x7" ub="1"/><var name="b8" type="B" ub="1"/><var name="b9" type="B" ub="1"/><var name="b10" type="B" ub="1"/><var name="b11" type="B" ub="1"/></variables><objectives><obj maxOrMin="min" name="defObj_objvar" numberOfObjCoef="0"/></objectives><constraints numberOfConstraints="13"><con name="e1" ub="5"/><con name="e2" ub="5.5"/><con name="e3" ub="1.2"/><con name="e4" ub="1.8"/><con name="e5" ub="2.5"/><con name="e6" ub="1.2"/><con name="e7" ub="1.64"/><con name="e8" ub="4.25"/><con name="e9" ub="4.64"/><con name="e10" lb="0" ub="0"/><con name="e11" lb="0" ub="0"/><con name="e12" lb="0" ub="0"/><con name="e13" lb="0" ub="0"/></constraints><linearConstraintCoefficients numberOfValues="22"><start><el>0</el><el mult="2">6</el><el mult="4" incr="2">8</el><el mult="3">14</el><el mult="4" incr="2">16</el></start><colIdx><el mult="3" incr="1">0</el><el mult="3" incr="1">7</el><el>0</el><el>7</el><el>1</el><el>8</el><el>2</el><el>9</el><el>0</el><el>10</el><el>3</el><el>7</el><el>4</el><el>8</el><el>5</el><el>9</el><el>6</el><el>10</el></colIdx><value><el mult="15">1</el><el>-1</el><el>1</el><el>-1</el><el>1</el><el>-1</el><el>1</el><el>-1</el></value></linearConstraintCoefficients><quadraticCoefficients numberOfQuadraticTerms="10"><qTerm idx="1" idxOne="0" idxTwo="0" coef="1"/><qTerm idx="1" idxOne="1" idxTwo="1" coef="1"/><qTerm idx="1" idxOne="2" idxTwo="2" coef="1"/><qTerm idx="1" idxOne="5" idxTwo="5" coef="1"/><qTerm idx="6" idxOne="1" idxTwo="1" coef="1"/><qTerm idx="6" idxOne="4" idxTwo="4" coef="1"/><qTerm idx="7" idxOne="2" idxTwo="2" coef="1"/><qTerm idx="7" idxOne="5" idxTwo="5" coef="1"/><qTerm idx="8" idxOne="2" idxTwo="2" coef="1"/><qTerm idx="8" idxOne="4" idxTwo="4" coef="1"/></quadraticCoefficients><nonlinearExpressions numberOfNonlinearExpressions="1"><nl idx="-1"><sum><square><sum><number value="-1"/><variable idx="3"/></sum></square><square><sum><number value="-2"/><variable idx="4"/></sum></square><square><sum><number value="-1"/><variable idx="5"/></sum></square><negate><ln><sum><number value="1"/><variable idx="6"/></sum></ln></negate><square><sum><number value="-1"/><variable idx="0"/></sum></square><square><sum><number value="-2"/><variable idx="1"/></sum></square><square><sum><number value="-3"/><variable idx="2"/></sum></square></sum></nl></nonlinearExpressions></instanceData></osil>